16
benzamide B3LYP/def2TZVP optimized geometry (from Gaussian log)
N        2.417544    1.007471    0.231111
C        1.716062   -0.136206   -0.034582
O        2.279359   -1.185755   -0.289548
C        0.218869   -0.023012   -0.014733
C       -0.515697   -1.202157    0.118283
C       -1.902326   -1.167018    0.142686
C       -2.572275    0.046525    0.020136
C       -1.849022    1.224177   -0.129214
C       -0.459896    1.190478   -0.143587
H        1.985190    1.792797    0.683556
H        3.416677    0.912191    0.310344
H        0.022626   -2.136725    0.198366
H       -2.462735   -2.086698    0.253473
H       -3.654623    0.073524    0.033829
H       -2.365769    2.168872   -0.241511
H        0.086664    2.113065   -0.293388
